12° run output:
{
    "Function": "kroA750.tsp",
    "Problem dimension": [
        345,
        414,
        473,
        687,
        37,
        12,
        112,
        38,
        54,
        254,
        443,
        501,
        408,
        157,
        723,
        355,
        76,
        566,
        409,
        367,
        184,
        91,
        530,
        167,
        251,
        700,
        270,
        126,
        617,
        176,
        310,
        153,
        128,
        168,
        527,
        721,
        149,
        561,
        313,
        671,
        387,
        727,
        739,
        625,
        585,
        227,
        0,
        673,
        241,
        250,
        63,
        210,
        579,
        239,
        499,
        183,
        358,
        56,
        703,
        397,
        632,
        430,
        390,
        23,
        324,
        735,
        624,
        147,
        686,
        340,
        348,
        221,
        551,
        136,
        467,
        81,
        52,
        474,
        283,
        732,
        90,
        663,
        291,
        438,
        19,
        523,
        420,
        421,
        269,
        586,
        722,
        737,
        526,
        592,
        591,
        734,
        456,
        198,
        652,
        322,
        451,
        520,
        393,
        605,
        115,
        475,
        747,
        161,
        610,
        424,
        704,
        402,
        30,
        748,
        44,
        713,
        573,
        664,
        265,
        452,
        40,
        155,
        645,
        275,
        274,
        541,
        226,
        323,
        164,
        741,
        353,
        124,
        640,
        503,
        349,
        301,
        234,
        644,
        642,
        247,
        695,
        497,
        41,
        432,
        536,
        4,
        172,
        749,
        158,
        531,
        356,
        352,
        302,
        370,
        553,
        282,
        191,
        637,
        628,
        192,
        328,
        129,
        117,
        631,
        334,
        619,
        277,
        163,
        674,
        590,
        641,
        431,
        706,
        317,
        401,
        237,
        35,
        173,
        494,
        733,
        331,
        634,
        507,
        635,
        538,
        220,
        25,
        123,
        690,
        440,
        285,
        582,
        564,
        230,
        103,
        676,
        693,
        1,
        312,
        548,
        407,
        404,
        362,
        267,
        648,
        377,
        606,
        533,
        179,
        330,
        211,
        273,
        73,
        327,
        83,
        59,
        53,
        244,
        679,
        272,
        315,
        469,
        336,
        159,
        471,
        295,
        9,
        535,
        138,
        480,
        308,
        508,
        36,
        623,
        233,
        262,
        742,
        615,
        683,
        144,
        460,
        85,
        549,
        386,
        724,
        659,
        622,
        646,
        746,
        146,
        289,
        461,
        455,
        7,
        518,
        400,
        252,
        552,
        416,
        46,
        665,
        143,
        570,
        418,
        304,
        223,
        20,
        94,
        410,
        216,
        705,
        10,
        206,
        84,
        137,
        381,
        490,
        165,
        366,
        92,
        581,
        180,
        609,
        379,
        446,
        519,
        89,
        278,
        236,
        604,
        245,
        544,
        543,
        97,
        170,
        17,
        413,
        268,
        506,
        209,
        502,
        621,
        442,
        256,
        127,
        468,
        200,
        399,
        373,
        102,
        360,
        108,
        120,
        524,
        675,
        395,
        529,
        429,
        293,
        369,
        222,
        257,
        669,
        691,
        50,
        42,
        307,
        677,
        80,
        584,
        571,
        466,
        181,
        476,
        260,
        31,
        225,
        264,
        49,
        712,
        101,
        678,
        204,
        611,
        271,
        343,
        392,
        14,
        132,
        177,
        65,
        513,
        612,
        160,
        485,
        653,
        588,
        603,
        457,
        483,
        394,
        547,
        692,
        111,
        99,
        510,
        738,
        196,
        197,
        489,
        470,
        371,
        596,
        672,
        359,
        22,
        240,
        383,
        60,
        100,
        287,
        207,
        150,
        658,
        550,
        411,
        630,
        599,
        212,
        613,
        116,
        534,
        441,
        342,
        16,
        169,
        578,
        560,
        110,
        454,
        589,
        75,
        425,
        516,
        668,
        148,
        249,
        684,
        62,
        203,
        532,
        718,
        71,
        654,
        558,
        600,
        98,
        602,
        174,
        626,
        365,
        350,
        214,
        682,
        139,
        142,
        423,
        33,
        720,
        528,
        661,
        228,
        294,
        258,
        189,
        32,
        481,
        130,
        699,
        190,
        744,
        593,
        542,
        685,
        255,
        67,
        333,
        714,
        580,
        171,
        24,
        309,
        368,
        119,
        562,
        505,
        332,
        346,
        162,
        151,
        376,
        321,
        39,
        11,
        134,
        29,
        351,
        540,
        58,
        608,
        118,
        131,
        422,
        638,
        681,
        597,
        667,
        152,
        306,
        224,
        104,
        243,
        448,
        565,
        554,
        125,
        140,
        567,
        259,
        178,
        569,
        266,
        657,
        517,
        716,
        449,
        670,
        372,
        546,
        730,
        156,
        587,
        300,
        445,
        263,
        515,
        325,
        583,
        398,
        575,
        319,
        18,
        415,
        276,
        61,
        175,
        385,
        229,
        726,
        576,
        717,
        618,
        689,
        498,
        248,
        109,
        121,
        182,
        68,
        388,
        202,
        620,
        113,
        5,
        556,
        347,
        329,
        594,
        396,
        45,
        643,
        261,
        338,
        728,
        419,
        500,
        709,
        698,
        74,
        186,
        64,
        559,
        6,
        298,
        213,
        731,
        15,
        433,
        405,
        341,
        434,
        231,
        86,
        656,
        568,
        305,
        493,
        482,
        187,
        472,
        427,
        708,
        242,
        655,
        133,
        660,
        512,
        436,
        444,
        509,
        459,
        557,
        702,
        736,
        299,
        88,
        486,
        193,
        745,
        318,
        357,
        34,
        477,
        426,
        316,
        636,
        522,
        235,
        166,
        435,
        296,
        219,
        464,
        478,
        649,
        188,
        361,
        303,
        666,
        279,
        491,
        66,
        380,
        337,
        208,
        688,
        650,
        389,
        428,
        719,
        504,
        26,
        406,
        194,
        521,
        27,
        154,
        185,
        374,
        82,
        525,
        195,
        311,
        662,
        238,
        607,
        79,
        465,
        199,
        563,
        484,
        417,
        70,
        701,
        403,
        437,
        47,
        43,
        601,
        364,
        253,
        106,
        462,
        439,
        537,
        627,
        545,
        87,
        514,
        135,
        326,
        511,
        77,
        297,
        463,
        354,
        725,
        539,
        205,
        21,
        710,
        2,
        114,
        707,
        72,
        13,
        574,
        375,
        697,
        740,
        314,
        145,
        78,
        280,
        412,
        246,
        694,
        107,
        382,
        629,
        215,
        201,
        281,
        696,
        57,
        450,
        598,
        572,
        69,
        93,
        232,
        479,
        453,
        715,
        496,
        595,
        616,
        218,
        729,
        492,
        288,
        217,
        711,
        577,
        743,
        391,
        555,
        292,
        384,
        614,
        320,
        487,
        28,
        339,
        378,
        286,
        447,
        290,
        55,
        335,
        651,
        488,
        458,
        363,
        51,
        122,
        284,
        3,
        48,
        639,
        96,
        141,
        95,
        495,
        633,
        680,
        344,
        105,
        8,
        647
    ],
    "Global Optimum": 0,
    "Algorithm": "Genetic algorithm",
    "Parameters": {
        "population": 30,
        "offspring": 30,
        "mutation probability": 0.0013333333333333333,
        "crossover probability": 0.9
    },
    "Fitness": 994397,
    "Solution": [
        345,
        414,
        473,
        687,
        37,
        12,
        112,
        38,
        54,
        254,
        443,
        501,
        408,
        157,
        723,
        355,
        76,
        566,
        409,
        367,
        184,
        91,
        530,
        167,
        251,
        700,
        270,
        126,
        617,
        176,
        310,
        153,
        128,
        168,
        527,
        721,
        149,
        561,
        313,
        671,
        387,
        727,
        739,
        625,
        585,
        227,
        0,
        673,
        241,
        250,
        63,
        210,
        579,
        239,
        499,
        183,
        358,
        56,
        703,
        397,
        632,
        430,
        390,
        23,
        324,
        735,
        624,
        147,
        686,
        340,
        348,
        221,
        551,
        136,
        467,
        81,
        52,
        474,
        283,
        732,
        90,
        663,
        291,
        438,
        19,
        523,
        420,
        421,
        269,
        586,
        722,
        737,
        526,
        592,
        591,
        734,
        456,
        198,
        652,
        322,
        451,
        520,
        393,
        605,
        115,
        475,
        747,
        161,
        610,
        424,
        704,
        402,
        30,
        748,
        44,
        713,
        573,
        664,
        265,
        452,
        40,
        155,
        645,
        275,
        274,
        541,
        226,
        323,
        164,
        741,
        353,
        124,
        640,
        503,
        349,
        301,
        234,
        644,
        642,
        247,
        695,
        497,
        41,
        432,
        536,
        4,
        172,
        749,
        158,
        531,
        356,
        352,
        302,
        370,
        553,
        282,
        191,
        637,
        628,
        192,
        328,
        129,
        117,
        631,
        334,
        619,
        277,
        163,
        674,
        590,
        641,
        431,
        706,
        317,
        401,
        237,
        35,
        173,
        494,
        733,
        331,
        634,
        507,
        635,
        538,
        220,
        25,
        123,
        690,
        440,
        285,
        582,
        564,
        230,
        103,
        676,
        693,
        1,
        312,
        548,
        407,
        404,
        362,
        267,
        648,
        377,
        606,
        533,
        179,
        330,
        211,
        273,
        73,
        327,
        83,
        59,
        53,
        244,
        679,
        272,
        315,
        469,
        336,
        159,
        471,
        295,
        9,
        535,
        138,
        480,
        308,
        508,
        36,
        623,
        233,
        262,
        742,
        615,
        683,
        144,
        460,
        85,
        549,
        386,
        724,
        659,
        622,
        646,
        746,
        146,
        289,
        461,
        455,
        7,
        518,
        400,
        252,
        552,
        416,
        46,
        665,
        143,
        570,
        418,
        304,
        223,
        20,
        94,
        410,
        216,
        705,
        10,
        206,
        84,
        137,
        381,
        490,
        165,
        366,
        92,
        581,
        180,
        609,
        379,
        446,
        519,
        89,
        278,
        236,
        604,
        245,
        544,
        543,
        97,
        170,
        17,
        413,
        268,
        506,
        209,
        502,
        621,
        442,
        256,
        127,
        468,
        200,
        399,
        373,
        102,
        360,
        108,
        120,
        524,
        675,
        395,
        529,
        429,
        293,
        369,
        222,
        257,
        669,
        691,
        50,
        42,
        307,
        677,
        80,
        584,
        571,
        466,
        181,
        476,
        260,
        31,
        225,
        264,
        49,
        712,
        101,
        678,
        204,
        611,
        271,
        343,
        392,
        14,
        132,
        177,
        65,
        513,
        612,
        160,
        485,
        653,
        588,
        603,
        457,
        483,
        394,
        547,
        692,
        111,
        99,
        510,
        738,
        196,
        197,
        489,
        470,
        371,
        596,
        672,
        359,
        22,
        240,
        383,
        60,
        100,
        287,
        207,
        150,
        658,
        550,
        411,
        630,
        599,
        212,
        613,
        116,
        534,
        441,
        342,
        16,
        169,
        578,
        560,
        110,
        454,
        589,
        75,
        425,
        516,
        668,
        148,
        249,
        684,
        62,
        203,
        532,
        718,
        71,
        654,
        558,
        600,
        98,
        602,
        174,
        626,
        365,
        350,
        214,
        682,
        139,
        142,
        423,
        33,
        720,
        528,
        661,
        228,
        294,
        258,
        189,
        32,
        481,
        130,
        699,
        190,
        744,
        593,
        542,
        685,
        255,
        67,
        333,
        714,
        580,
        171,
        24,
        309,
        368,
        119,
        562,
        505,
        332,
        346,
        162,
        151,
        376,
        321,
        39,
        11,
        134,
        29,
        351,
        540,
        58,
        608,
        118,
        131,
        422,
        638,
        681,
        597,
        667,
        152,
        306,
        224,
        104,
        243,
        448,
        565,
        554,
        125,
        140,
        567,
        259,
        178,
        569,
        266,
        657,
        517,
        716,
        449,
        670,
        372,
        546,
        730,
        156,
        587,
        300,
        445,
        263,
        515,
        325,
        583,
        398,
        575,
        319,
        18,
        415,
        276,
        61,
        175,
        385,
        229,
        726,
        576,
        717,
        618,
        689,
        498,
        248,
        109,
        121,
        182,
        68,
        388,
        202,
        620,
        113,
        5,
        556,
        347,
        329,
        594,
        396,
        45,
        643,
        261,
        338,
        728,
        419,
        500,
        709,
        698,
        74,
        186,
        64,
        559,
        6,
        298,
        213,
        731,
        15,
        433,
        405,
        341,
        434,
        231,
        86,
        656,
        568,
        305,
        493,
        482,
        187,
        472,
        427,
        708,
        242,
        655,
        133,
        660,
        512,
        436,
        444,
        509,
        459,
        557,
        702,
        736,
        299,
        88,
        486,
        193,
        745,
        318,
        357,
        34,
        477,
        426,
        316,
        636,
        522,
        235,
        166,
        435,
        296,
        219,
        464,
        478,
        649,
        188,
        361,
        303,
        666,
        279,
        491,
        66,
        380,
        337,
        208,
        688,
        650,
        389,
        428,
        719,
        504,
        26,
        406,
        194,
        521,
        27,
        154,
        185,
        374,
        82,
        525,
        195,
        311,
        662,
        238,
        607,
        79,
        465,
        199,
        563,
        484,
        417,
        70,
        701,
        403,
        437,
        47,
        43,
        601,
        364,
        253,
        106,
        462,
        439,
        537,
        627,
        545,
        87,
        514,
        135,
        326,
        511,
        77,
        297,
        463,
        354,
        725,
        539,
        205,
        21,
        710,
        2,
        114,
        707,
        72,
        13,
        574,
        375,
        697,
        740,
        314,
        145,
        78,
        280,
        412,
        246,
        694,
        107,
        382,
        629,
        215,
        201,
        281,
        696,
        57,
        450,
        598,
        572,
        69,
        93,
        232,
        479,
        453,
        715,
        496,
        595,
        616,
        218,
        729,
        492,
        288,
        217,
        711,
        577,
        743,
        391,
        555,
        292,
        384,
        614,
        320,
        487,
        28,
        339,
        378,
        286,
        447,
        290,
        55,
        335,
        651,
        488,
        458,
        363,
        51,
        122,
        284,
        3,
        48,
        639,
        96,
        141,
        95,
        495,
        633,
        680,
        344,
        105,
        8,
        647
    ],
    "Nb of functions evaluations": 50010,
    "Computational time in seconds": 785.6105847358704,
    "Stopping criterion in evaluations": 50000
}